p edge 30 108 10
v 5 5 7 11 19 26
v 2 9 29
v 2 12 20
v 4 4 13 16 28
v 2 2 25
v 4 3 6 14 17
v 2 1 18
v 5 8 21 22 23 30
v 3 15 24 27
v 1 10
e 1 8
e 1 17
e 1 20
e 1 23
e 1 24
e 1 25
e 1 27
e 2 3
e 2 5
e 2 6
e 2 8
e 2 14
e 2 26
e 3 8
e 3 13
e 3 15
e 3 19
e 3 20
e 3 22
e 4 13
e 4 15
e 4 17
e 4 23
e 4 25
e 4 30
e 5 6
e 5 13
e 5 14
e 5 17
e 5 19
e 5 22
e 5 26
e 5 30
e 6 9
e 6 10
e 6 11
e 6 12
e 6 14
e 6 27
e 6 30
e 7 10
e 7 13
e 7 15
e 7 17
e 7 20
e 8 10
e 8 15
e 8 20
e 8 22
e 8 25
e 8 27
e 8 28
e 9 12
e 9 19
e 9 23
e 9 29
e 10 17
e 10 21
e 10 29
e 11 15
e 11 24
e 11 26
e 12 22
e 12 24
e 12 25
e 13 19
e 13 22
e 13 24
e 13 27
e 14 22
e 14 23
e 14 27
e 14 28
e 14 29
e 14 30
e 15 17
e 15 28
e 15 30
e 16 19
e 16 21
e 16 30
e 17 21
e 17 24
e 18 25
e 19 20
e 19 22
e 19 23
e 19 28
e 20 23
e 20 25
e 20 28
e 21 23
e 21 26
e 21 27
e 21 28
e 22 25
e 22 26
e 23 24
e 23 26
e 23 27
e 23 28
e 24 26
e 25 28
e 25 29
e 25 30
e 26 27
e 27 28
e 29 30
